Minimize
 + xt_0 + yt_0 -  w_r_1 + xt_1 + yt_1 + xt_2 + yt_2 -  w_l_5 + xt_5 + yt_5 + xt_6 + yt_6 + xt_7 + yt_7 + xt_8 + yt_8 + xt_9 + yt_9 + xt_10 + yt_10

Subject To
1 y_0 + -0 x_0  <= 135.87
1 y_0 + -1 x_0  <= 14.4308
1 y_0 + -1 x_0  <= 14.3936
x_0 - xt_0 <= 121.71
x_0 + xt_0 >= 121.71
y_0 - yt_0 <= 135.85
y_0 + yt_0 >= 135.85
1 y_1 + -0 x_1  + w_r_1 <= 137.796
1 y_1 + -1 x_1  <= 10.7186
x_1 - xt_1 <= 127.285
x_1 + xt_1 >= 127.285
y_1 - yt_1 <= 137.75
y_1 + yt_1 >= 137.75
1 y_2 + -0 x_2  <= 137.17
1 y_2 + 1 x_2  <= 269.801
x_2 - xt_2 <= 131.56
x_2 + xt_2 >= 131.56
y_2 - yt_2 <= 137.15
y_2 + yt_2 >= 137.15
1 y_5 + -0 x_5  - w_l_5 >= 138.03
1 y_5 + 0 x_5  - w_l_5 >= 138.004
1 y_5 + 0 x_5  - w_l_5 >= 138.03
x_5 - xt_5 <= 127.685
x_5 + xt_5 >= 127.685
y_5 - yt_5 <= 138.05
y_5 + yt_5 >= 138.05
1 y_6 + -1 x_6  >= 14.4992
0 y_6 + 1 x_6  <= 121.755
x_6 - xt_6 <= 121.685
x_6 + xt_6 >= 121.685
y_6 - yt_6 <= 136.475
y_6 + yt_6 >= 136.475
1 y_7 + -1 x_7  >= 14.6864
x_7 - xt_7 <= 119.96
x_7 + xt_7 >= 119.96
y_7 - yt_7 <= 134.9
y_7 + yt_7 >= 134.9
1 y_9 + 1 x_9  >= 269.069
x_9 - xt_9 <= 132.385
x_9 + xt_9 >= 132.385
y_9 - yt_9 <= 137.775
y_9 + yt_9 >= 137.775
 + 7.874 w_r_1 <= 11.7447
 + 7.874 w_l_5 <= 8.74472

Bounds
x_0 >= 0
y_0 >= 0
x_1 >= 0
y_1 >= 0
w_r_1 >= 0
x_2 >= 0
y_2 >= 0
x_5 >= 0
y_5 >= 0
w_l_5 >= 0
w_l_5 >= 0
w_l_5 >= 0
x_6 >= 0
y_6 >= 0
x_7 >= 0
y_7 >= 0
x_8 >= 0
y_8 >= 0
x_9 >= 0
y_9 >= 0
x_10 >= 0
y_10 >= 0
End
